ssat_solver_solve2
#level: 2
Abc_NtkNodeNum(s->pNtk): 659  , BDD limit: 10240
Build BDD success
level 1: 10 element
Exist
level 0: 10 element
Random
c ssat solving in ABC
#var: 20
s SATISFIABLE
  > Upper bound = 8.291016e-01
  > Lower bound = 8.291016e-01
FINISHED CPU 0.10 MEM 59776 MAXMEM 59776 STALE 0 MAXMEM_RSS 16460
<time name="ALL">180</time>
real 0.36
user 0.33
sys 0.12
